%t40m10r3-1.pl
N = 40;
M = 10;
R = 3;

durations = [160, 639, 205, 163, 801, 78, 528, 458, 272, 236, 
             470, 679, 178, 291, 712, 274, 7, 245, 747, 364, 
             511, 291, 341, 364, 221, 752, 16, 223, 88, 215, 
             792, 528, 629, 528, 34, 785, 119, 576, 115, 179];

machines = [{}, {}, {}, {}, {}, {}, {}, {2,6,7,9}, {}, {}, 
            {}, {}, {}, {}, {}, {1,2,5}, {8,2,5,3}, {8}, {}, 
            {10,7}, {5,3,6}, {}, {}, {}, {1,3,6}, {}, {7,5,3}, {}, {}, 
            {10}, {}, {}, {}, {}, {}, {}, {}, {}, {}, {}];

resources = [{}, {}, {}, {2,1}, {1,2,3}, {}, {2,3,1}, {}, {}, {}, 
             {}, {}, {}, {}, {3,1}, {}, {}, {}, {}, {}, 
             {}, {3,1,2}, {}, {}, {}, {}, {1,2}, {}, {}, 
             {}, {1,3,2}, {}, {}, {2,1}, {}, {}, {1}, {}, {}, {3,2,1}];